100
32
19
12
6
13
28
13
5
29
22
1
30
29
27
31
31
10
28
1
13
32
7
25
11
29
10
8
31
27
6
22
31
4
25
2
22
28
15
29
29
16
5
24
24
10
20
2
17
25
6
24
17
27
2
24
25
12
7
19
5
18
25
12
32
18
24
25
18
29
30
24
14
18
24
20
30
17
1
25
13
23
27
18
30
31
1
3
3
12
23
20
20
4
23
22
25
10
20
10
18
10